c FILE: hole13.cnf
c SOURCE: file mkhole.ml of Sylvain.Boulme@imag.fr
c DESCRIPTION: placing each of 14 pigeons in 13 distinct holes (one pigeon by hole)
c NOTE: Not Satisfiable
p cnf 182 1197
182 181 180 179 178 177 176 175 174 173 172 171 170 0
169 168 167 166 165 164 163 162 161 160 159 158 157 0
156 155 154 153 152 151 150 149 148 147 146 145 144 0
143 142 141 140 139 138 137 136 135 134 133 132 131 0
130 129 128 127 126 125 124 123 122 121 120 119 118 0
117 116 115 114 113 112 111 110 109 108 107 106 105 0
104 103 102 101 100 99 98 97 96 95 94 93 92 0
91 90 89 88 87 86 85 84 83 82 81 80 79 0
78 77 76 75 74 73 72 71 70 69 68 67 66 0
65 64 63 62 61 60 59 58 57 56 55 54 53 0
52 51 50 49 48 47 46 45 44 43 42 41 40 0
39 38 37 36 35 34 33 32 31 30 29 28 27 0
26 25 24 23 22 21 20 19 18 17 16 15 14 0
13 12 11 10 9 8 7 6 5 4 3 2 1 0
-182 -169 0
-182 -156 0
-182 -143 0
-182 -130 0
-182 -117 0
-182 -104 0
-182 -91 0
-182 -78 0
-182 -65 0
-182 -52 0
-182 -39 0
-182 -26 0
-182 -13 0
-169 -156 0
-169 -143 0
-169 -130 0
-169 -117 0
-169 -104 0
-169 -91 0
-169 -78 0
-169 -65 0
-169 -52 0
-169 -39 0
-169 -26 0
-169 -13 0
-156 -143 0
-156 -130 0
-156 -117 0
-156 -104 0
-156 -91 0
-156 -78 0
-156 -65 0
-156 -52 0
-156 -39 0
-156 -26 0
-156 -13 0
-143 -130 0
-143 -117 0
-143 -104 0
-143 -91 0
-143 -78 0
-143 -65 0
-143 -52 0
-143 -39 0
-143 -26 0
-143 -13 0
-130 -117 0
-130 -104 0
-130 -91 0
-130 -78 0
-130 -65 0
-130 -52 0
-130 -39 0
-130 -26 0
-130 -13 0
-117 -104 0
-117 -91 0
-117 -78 0
-117 -65 0
-117 -52 0
-117 -39 0
-117 -26 0
-117 -13 0
-104 -91 0
-104 -78 0
-104 -65 0
-104 -52 0
-104 -39 0
-104 -26 0
-104 -13 0
-91 -78 0
-91 -65 0
-91 -52 0
-91 -39 0
-91 -26 0
-91 -13 0
-78 -65 0
-78 -52 0
-78 -39 0
-78 -26 0
-78 -13 0
-65 -52 0
-65 -39 0
-65 -26 0
-65 -13 0
-52 -39 0
-52 -26 0
-52 -13 0
-39 -26 0
-39 -13 0
-26 -13 0
-181 -168 0
-181 -155 0
-181 -142 0
-181 -129 0
-181 -116 0
-181 -103 0
-181 -90 0
-181 -77 0
-181 -64 0
-181 -51 0
-181 -38 0
-181 -25 0
-181 -12 0
-168 -155 0
-168 -142 0
-168 -129 0
-168 -116 0
-168 -103 0
-168 -90 0
-168 -77 0
-168 -64 0
-168 -51 0
-168 -38 0
-168 -25 0
-168 -12 0
-155 -142 0
-155 -129 0
-155 -116 0
-155 -103 0
-155 -90 0
-155 -77 0
-155 -64 0
-155 -51 0
-155 -38 0
-155 -25 0
-155 -12 0
-142 -129 0
-142 -116 0
-142 -103 0
-142 -90 0
-142 -77 0
-142 -64 0
-142 -51 0
-142 -38 0
-142 -25 0
-142 -12 0
-129 -116 0
-129 -103 0
-129 -90 0
-129 -77 0
-129 -64 0
-129 -51 0
-129 -38 0
-129 -25 0
-129 -12 0
-116 -103 0
-116 -90 0
-116 -77 0
-116 -64 0
-116 -51 0
-116 -38 0
-116 -25 0
-116 -12 0
-103 -90 0
-103 -77 0
-103 -64 0
-103 -51 0
-103 -38 0
-103 -25 0
-103 -12 0
-90 -77 0
-90 -64 0
-90 -51 0
-90 -38 0
-90 -25 0
-90 -12 0
-77 -64 0
-77 -51 0
-77 -38 0
-77 -25 0
-77 -12 0
-64 -51 0
-64 -38 0
-64 -25 0
-64 -12 0
-51 -38 0
-51 -25 0
-51 -12 0
-38 -25 0
-38 -12 0
-25 -12 0
-180 -167 0
-180 -154 0
-180 -141 0
-180 -128 0
-180 -115 0
-180 -102 0
-180 -89 0
-180 -76 0
-180 -63 0
-180 -50 0
-180 -37 0
-180 -24 0
-180 -11 0
-167 -154 0
-167 -141 0
-167 -128 0
-167 -115 0
-167 -102 0
-167 -89 0
-167 -76 0
-167 -63 0
-167 -50 0
-167 -37 0
-167 -24 0
-167 -11 0
-154 -141 0
-154 -128 0
-154 -115 0
-154 -102 0
-154 -89 0
-154 -76 0
-154 -63 0
-154 -50 0
-154 -37 0
-154 -24 0
-154 -11 0
-141 -128 0
-141 -115 0
-141 -102 0
-141 -89 0
-141 -76 0
-141 -63 0
-141 -50 0
-141 -37 0
-141 -24 0
-141 -11 0
-128 -115 0
-128 -102 0
-128 -89 0
-128 -76 0
-128 -63 0
-128 -50 0
-128 -37 0
-128 -24 0
-128 -11 0
-115 -102 0
-115 -89 0
-115 -76 0
-115 -63 0
-115 -50 0
-115 -37 0
-115 -24 0
-115 -11 0
-102 -89 0
-102 -76 0
-102 -63 0
-102 -50 0
-102 -37 0
-102 -24 0
-102 -11 0
-89 -76 0
-89 -63 0
-89 -50 0
-89 -37 0
-89 -24 0
-89 -11 0
-76 -63 0
-76 -50 0
-76 -37 0
-76 -24 0
-76 -11 0
-63 -50 0
-63 -37 0
-63 -24 0
-63 -11 0
-50 -37 0
-50 -24 0
-50 -11 0
-37 -24 0
-37 -11 0
-24 -11 0
-179 -166 0
-179 -153 0
-179 -140 0
-179 -127 0
-179 -114 0
-179 -101 0
-179 -88 0
-179 -75 0
-179 -62 0
-179 -49 0
-179 -36 0
-179 -23 0
-179 -10 0
-166 -153 0
-166 -140 0
-166 -127 0
-166 -114 0
-166 -101 0
-166 -88 0
-166 -75 0
-166 -62 0
-166 -49 0
-166 -36 0
-166 -23 0
-166 -10 0
-153 -140 0
-153 -127 0
-153 -114 0
-153 -101 0
-153 -88 0
-153 -75 0
-153 -62 0
-153 -49 0
-153 -36 0
-153 -23 0
-153 -10 0
-140 -127 0
-140 -114 0
-140 -101 0
-140 -88 0
-140 -75 0
-140 -62 0
-140 -49 0
-140 -36 0
-140 -23 0
-140 -10 0
-127 -114 0
-127 -101 0
-127 -88 0
-127 -75 0
-127 -62 0
-127 -49 0
-127 -36 0
-127 -23 0
-127 -10 0
-114 -101 0
-114 -88 0
-114 -75 0
-114 -62 0
-114 -49 0
-114 -36 0
-114 -23 0
-114 -10 0
-101 -88 0
-101 -75 0
-101 -62 0
-101 -49 0
-101 -36 0
-101 -23 0
-101 -10 0
-88 -75 0
-88 -62 0
-88 -49 0
-88 -36 0
-88 -23 0
-88 -10 0
-75 -62 0
-75 -49 0
-75 -36 0
-75 -23 0
-75 -10 0
-62 -49 0
-62 -36 0
-62 -23 0
-62 -10 0
-49 -36 0
-49 -23 0
-49 -10 0
-36 -23 0
-36 -10 0
-23 -10 0
-178 -165 0
-178 -152 0
-178 -139 0
-178 -126 0
-178 -113 0
-178 -100 0
-178 -87 0
-178 -74 0
-178 -61 0
-178 -48 0
-178 -35 0
-178 -22 0
-178 -9 0
-165 -152 0
-165 -139 0
-165 -126 0
-165 -113 0
-165 -100 0
-165 -87 0
-165 -74 0
-165 -61 0
-165 -48 0
-165 -35 0
-165 -22 0
-165 -9 0
-152 -139 0
-152 -126 0
-152 -113 0
-152 -100 0
-152 -87 0
-152 -74 0
-152 -61 0
-152 -48 0
-152 -35 0
-152 -22 0
-152 -9 0
-139 -126 0
-139 -113 0
-139 -100 0
-139 -87 0
-139 -74 0
-139 -61 0
-139 -48 0
-139 -35 0
-139 -22 0
-139 -9 0
-126 -113 0
-126 -100 0
-126 -87 0
-126 -74 0
-126 -61 0
-126 -48 0
-126 -35 0
-126 -22 0
-126 -9 0
-113 -100 0
-113 -87 0
-113 -74 0
-113 -61 0
-113 -48 0
-113 -35 0
-113 -22 0
-113 -9 0
-100 -87 0
-100 -74 0
-100 -61 0
-100 -48 0
-100 -35 0
-100 -22 0
-100 -9 0
-87 -74 0
-87 -61 0
-87 -48 0
-87 -35 0
-87 -22 0
-87 -9 0
-74 -61 0
-74 -48 0
-74 -35 0
-74 -22 0
-74 -9 0
-61 -48 0
-61 -35 0
-61 -22 0
-61 -9 0
-48 -35 0
-48 -22 0
-48 -9 0
-35 -22 0
-35 -9 0
-22 -9 0
-177 -164 0
-177 -151 0
-177 -138 0
-177 -125 0
-177 -112 0
-177 -99 0
-177 -86 0
-177 -73 0
-177 -60 0
-177 -47 0
-177 -34 0
-177 -21 0
-177 -8 0
-164 -151 0
-164 -138 0
-164 -125 0
-164 -112 0
-164 -99 0
-164 -86 0
-164 -73 0
-164 -60 0
-164 -47 0
-164 -34 0
-164 -21 0
-164 -8 0
-151 -138 0
-151 -125 0
-151 -112 0
-151 -99 0
-151 -86 0
-151 -73 0
-151 -60 0
-151 -47 0
-151 -34 0
-151 -21 0
-151 -8 0
-138 -125 0
-138 -112 0
-138 -99 0
-138 -86 0
-138 -73 0
-138 -60 0
-138 -47 0
-138 -34 0
-138 -21 0
-138 -8 0
-125 -112 0
-125 -99 0
-125 -86 0
-125 -73 0
-125 -60 0
-125 -47 0
-125 -34 0
-125 -21 0
-125 -8 0
-112 -99 0
-112 -86 0
-112 -73 0
-112 -60 0
-112 -47 0
-112 -34 0
-112 -21 0
-112 -8 0
-99 -86 0
-99 -73 0
-99 -60 0
-99 -47 0
-99 -34 0
-99 -21 0
-99 -8 0
-86 -73 0
-86 -60 0
-86 -47 0
-86 -34 0
-86 -21 0
-86 -8 0
-73 -60 0
-73 -47 0
-73 -34 0
-73 -21 0
-73 -8 0
-60 -47 0
-60 -34 0
-60 -21 0
-60 -8 0
-47 -34 0
-47 -21 0
-47 -8 0
-34 -21 0
-34 -8 0
-21 -8 0
-176 -163 0
-176 -150 0
-176 -137 0
-176 -124 0
-176 -111 0
-176 -98 0
-176 -85 0
-176 -72 0
-176 -59 0
-176 -46 0
-176 -33 0
-176 -20 0
-176 -7 0
-163 -150 0
-163 -137 0
-163 -124 0
-163 -111 0
-163 -98 0
-163 -85 0
-163 -72 0
-163 -59 0
-163 -46 0
-163 -33 0
-163 -20 0
-163 -7 0
-150 -137 0
-150 -124 0
-150 -111 0
-150 -98 0
-150 -85 0
-150 -72 0
-150 -59 0
-150 -46 0
-150 -33 0
-150 -20 0
-150 -7 0
-137 -124 0
-137 -111 0
-137 -98 0
-137 -85 0
-137 -72 0
-137 -59 0
-137 -46 0
-137 -33 0
-137 -20 0
-137 -7 0
-124 -111 0
-124 -98 0
-124 -85 0
-124 -72 0
-124 -59 0
-124 -46 0
-124 -33 0
-124 -20 0
-124 -7 0
-111 -98 0
-111 -85 0
-111 -72 0
-111 -59 0
-111 -46 0
-111 -33 0
-111 -20 0
-111 -7 0
-98 -85 0
-98 -72 0
-98 -59 0
-98 -46 0
-98 -33 0
-98 -20 0
-98 -7 0
-85 -72 0
-85 -59 0
-85 -46 0
-85 -33 0
-85 -20 0
-85 -7 0
-72 -59 0
-72 -46 0
-72 -33 0
-72 -20 0
-72 -7 0
-59 -46 0
-59 -33 0
-59 -20 0
-59 -7 0
-46 -33 0
-46 -20 0
-46 -7 0
-33 -20 0
-33 -7 0
-20 -7 0
-175 -162 0
-175 -149 0
-175 -136 0
-175 -123 0
-175 -110 0
-175 -97 0
-175 -84 0
-175 -71 0
-175 -58 0
-175 -45 0
-175 -32 0
-175 -19 0
-175 -6 0
-162 -149 0
-162 -136 0
-162 -123 0
-162 -110 0
-162 -97 0
-162 -84 0
-162 -71 0
-162 -58 0
-162 -45 0
-162 -32 0
-162 -19 0
-162 -6 0
-149 -136 0
-149 -123 0
-149 -110 0
-149 -97 0
-149 -84 0
-149 -71 0
-149 -58 0
-149 -45 0
-149 -32 0
-149 -19 0
-149 -6 0
-136 -123 0
-136 -110 0
-136 -97 0
-136 -84 0
-136 -71 0
-136 -58 0
-136 -45 0
-136 -32 0
-136 -19 0
-136 -6 0
-123 -110 0
-123 -97 0
-123 -84 0
-123 -71 0
-123 -58 0
-123 -45 0
-123 -32 0
-123 -19 0
-123 -6 0
-110 -97 0
-110 -84 0
-110 -71 0
-110 -58 0
-110 -45 0
-110 -32 0
-110 -19 0
-110 -6 0
-97 -84 0
-97 -71 0
-97 -58 0
-97 -45 0
-97 -32 0
-97 -19 0
-97 -6 0
-84 -71 0
-84 -58 0
-84 -45 0
-84 -32 0
-84 -19 0
-84 -6 0
-71 -58 0
-71 -45 0
-71 -32 0
-71 -19 0
-71 -6 0
-58 -45 0
-58 -32 0
-58 -19 0
-58 -6 0
-45 -32 0
-45 -19 0
-45 -6 0
-32 -19 0
-32 -6 0
-19 -6 0
-174 -161 0
-174 -148 0
-174 -135 0
-174 -122 0
-174 -109 0
-174 -96 0
-174 -83 0
-174 -70 0
-174 -57 0
-174 -44 0
-174 -31 0
-174 -18 0
-174 -5 0
-161 -148 0
-161 -135 0
-161 -122 0
-161 -109 0
-161 -96 0
-161 -83 0
-161 -70 0
-161 -57 0
-161 -44 0
-161 -31 0
-161 -18 0
-161 -5 0
-148 -135 0
-148 -122 0
-148 -109 0
-148 -96 0
-148 -83 0
-148 -70 0
-148 -57 0
-148 -44 0
-148 -31 0
-148 -18 0
-148 -5 0
-135 -122 0
-135 -109 0
-135 -96 0
-135 -83 0
-135 -70 0
-135 -57 0
-135 -44 0
-135 -31 0
-135 -18 0
-135 -5 0
-122 -109 0
-122 -96 0
-122 -83 0
-122 -70 0
-122 -57 0
-122 -44 0
-122 -31 0
-122 -18 0
-122 -5 0
-109 -96 0
-109 -83 0
-109 -70 0
-109 -57 0
-109 -44 0
-109 -31 0
-109 -18 0
-109 -5 0
-96 -83 0
-96 -70 0
-96 -57 0
-96 -44 0
-96 -31 0
-96 -18 0
-96 -5 0
-83 -70 0
-83 -57 0
-83 -44 0
-83 -31 0
-83 -18 0
-83 -5 0
-70 -57 0
-70 -44 0
-70 -31 0
-70 -18 0
-70 -5 0
-57 -44 0
-57 -31 0
-57 -18 0
-57 -5 0
-44 -31 0
-44 -18 0
-44 -5 0
-31 -18 0
-31 -5 0
-18 -5 0
-173 -160 0
-173 -147 0
-173 -134 0
-173 -121 0
-173 -108 0
-173 -95 0
-173 -82 0
-173 -69 0
-173 -56 0
-173 -43 0
-173 -30 0
-173 -17 0
-173 -4 0
-160 -147 0
-160 -134 0
-160 -121 0
-160 -108 0
-160 -95 0
-160 -82 0
-160 -69 0
-160 -56 0
-160 -43 0
-160 -30 0
-160 -17 0
-160 -4 0
-147 -134 0
-147 -121 0
-147 -108 0
-147 -95 0
-147 -82 0
-147 -69 0
-147 -56 0
-147 -43 0
-147 -30 0
-147 -17 0
-147 -4 0
-134 -121 0
-134 -108 0
-134 -95 0
-134 -82 0
-134 -69 0
-134 -56 0
-134 -43 0
-134 -30 0
-134 -17 0
-134 -4 0
-121 -108 0
-121 -95 0
-121 -82 0
-121 -69 0
-121 -56 0
-121 -43 0
-121 -30 0
-121 -17 0
-121 -4 0
-108 -95 0
-108 -82 0
-108 -69 0
-108 -56 0
-108 -43 0
-108 -30 0
-108 -17 0
-108 -4 0
-95 -82 0
-95 -69 0
-95 -56 0
-95 -43 0
-95 -30 0
-95 -17 0
-95 -4 0
-82 -69 0
-82 -56 0
-82 -43 0
-82 -30 0
-82 -17 0
-82 -4 0
-69 -56 0
-69 -43 0
-69 -30 0
-69 -17 0
-69 -4 0
-56 -43 0
-56 -30 0
-56 -17 0
-56 -4 0
-43 -30 0
-43 -17 0
-43 -4 0
-30 -17 0
-30 -4 0
-17 -4 0
-172 -159 0
-172 -146 0
-172 -133 0
-172 -120 0
-172 -107 0
-172 -94 0
-172 -81 0
-172 -68 0
-172 -55 0
-172 -42 0
-172 -29 0
-172 -16 0
-172 -3 0
-159 -146 0
-159 -133 0
-159 -120 0
-159 -107 0
-159 -94 0
-159 -81 0
-159 -68 0
-159 -55 0
-159 -42 0
-159 -29 0
-159 -16 0
-159 -3 0
-146 -133 0
-146 -120 0
-146 -107 0
-146 -94 0
-146 -81 0
-146 -68 0
-146 -55 0
-146 -42 0
-146 -29 0
-146 -16 0
-146 -3 0
-133 -120 0
-133 -107 0
-133 -94 0
-133 -81 0
-133 -68 0
-133 -55 0
-133 -42 0
-133 -29 0
-133 -16 0
-133 -3 0
-120 -107 0
-120 -94 0
-120 -81 0
-120 -68 0
-120 -55 0
-120 -42 0
-120 -29 0
-120 -16 0
-120 -3 0
-107 -94 0
-107 -81 0
-107 -68 0
-107 -55 0
-107 -42 0
-107 -29 0
-107 -16 0
-107 -3 0
-94 -81 0
-94 -68 0
-94 -55 0
-94 -42 0
-94 -29 0
-94 -16 0
-94 -3 0
-81 -68 0
-81 -55 0
-81 -42 0
-81 -29 0
-81 -16 0
-81 -3 0
-68 -55 0
-68 -42 0
-68 -29 0
-68 -16 0
-68 -3 0
-55 -42 0
-55 -29 0
-55 -16 0
-55 -3 0
-42 -29 0
-42 -16 0
-42 -3 0
-29 -16 0
-29 -3 0
-16 -3 0
-171 -158 0
-171 -145 0
-171 -132 0
-171 -119 0
-171 -106 0
-171 -93 0
-171 -80 0
-171 -67 0
-171 -54 0
-171 -41 0
-171 -28 0
-171 -15 0
-171 -2 0
-158 -145 0
-158 -132 0
-158 -119 0
-158 -106 0
-158 -93 0
-158 -80 0
-158 -67 0
-158 -54 0
-158 -41 0
-158 -28 0
-158 -15 0
-158 -2 0
-145 -132 0
-145 -119 0
-145 -106 0
-145 -93 0
-145 -80 0
-145 -67 0
-145 -54 0
-145 -41 0
-145 -28 0
-145 -15 0
-145 -2 0
-132 -119 0
-132 -106 0
-132 -93 0
-132 -80 0
-132 -67 0
-132 -54 0
-132 -41 0
-132 -28 0
-132 -15 0
-132 -2 0
-119 -106 0
-119 -93 0
-119 -80 0
-119 -67 0
-119 -54 0
-119 -41 0
-119 -28 0
-119 -15 0
-119 -2 0
-106 -93 0
-106 -80 0
-106 -67 0
-106 -54 0
-106 -41 0
-106 -28 0
-106 -15 0
-106 -2 0
-93 -80 0
-93 -67 0
-93 -54 0
-93 -41 0
-93 -28 0
-93 -15 0
-93 -2 0
-80 -67 0
-80 -54 0
-80 -41 0
-80 -28 0
-80 -15 0
-80 -2 0
-67 -54 0
-67 -41 0
-67 -28 0
-67 -15 0
-67 -2 0
-54 -41 0
-54 -28 0
-54 -15 0
-54 -2 0
-41 -28 0
-41 -15 0
-41 -2 0
-28 -15 0
-28 -2 0
-15 -2 0
-170 -157 0
-170 -144 0
-170 -131 0
-170 -118 0
-170 -105 0
-170 -92 0
-170 -79 0
-170 -66 0
-170 -53 0
-170 -40 0
-170 -27 0
-170 -14 0
-170 -1 0
-157 -144 0
-157 -131 0
-157 -118 0
-157 -105 0
-157 -92 0
-157 -79 0
-157 -66 0
-157 -53 0
-157 -40 0
-157 -27 0
-157 -14 0
-157 -1 0
-144 -131 0
-144 -118 0
-144 -105 0
-144 -92 0
-144 -79 0
-144 -66 0
-144 -53 0
-144 -40 0
-144 -27 0
-144 -14 0
-144 -1 0
-131 -118 0
-131 -105 0
-131 -92 0
-131 -79 0
-131 -66 0
-131 -53 0
-131 -40 0
-131 -27 0
-131 -14 0
-131 -1 0
-118 -105 0
-118 -92 0
-118 -79 0
-118 -66 0
-118 -53 0
-118 -40 0
-118 -27 0
-118 -14 0
-118 -1 0
-105 -92 0
-105 -79 0
-105 -66 0
-105 -53 0
-105 -40 0
-105 -27 0
-105 -14 0
-105 -1 0
-92 -79 0
-92 -66 0
-92 -53 0
-92 -40 0
-92 -27 0
-92 -14 0
-92 -1 0
-79 -66 0
-79 -53 0
-79 -40 0
-79 -27 0
-79 -14 0
-79 -1 0
-66 -53 0
-66 -40 0
-66 -27 0
-66 -14 0
-66 -1 0
-53 -40 0
-53 -27 0
-53 -14 0
-53 -1 0
-40 -27 0
-40 -14 0
-40 -1 0
-27 -14 0
-27 -1 0
-14 -1 0
